/* Objective function */
max: +t;

/* Constraints */
+1.49002492428 pi1 +0.957512140274 pi2 +0.911810040474 pi3 +2.81472229958 pi4 +0.819567322731 pi5 -t >= 0;
+1.04146397114 pi1 +1.39922726154 pi2 +0.500620782375 pi3 +2.20677185058 pi4 +0.533672988415 pi5 -t >= 0;
+1.10575389862 pi1 +0.752830505371 pi2 +1.52613282204 pi3 +1.54730272293 pi4 +0.476966023445 pi5 -t >= 0;
+1.12740755081 pi1 +0.489836245775 pi2 +0.480334848165 pi3 +1.77399778366 pi4 +0.426082670688 pi5 -t >= 0;
+2.69095206261 pi1 +1.46108114719 pi2 +1.26307237148 pi3 +9.37577152253 pi4 +1.31845784187 pi5 -t >= 0;
+pi1 +pi2 +pi3 +pi4 +pi5 = 1;
